NAME : A-n10-3
DIMENSION : 10
VEHICLE NUMBER : 5
VEHICLE CAPACITY : 70
MAX POD NUMBER : 2
NODE_COORD_SECTION 
 1 15 19
 2 1 49
 3 87 25
 4 69 65
 5 93 91
 6 33 31
 7 71 61
 8 29 9
 9 93 7
 10 55 47
DEMAND_SECTION 
1 0 
2 1 
3 14 
4 15 
5 11 
6 18 
7 2 
8 22 
9 7 
10 18 
DEPOT_SECTION 
 1  
 -1  
EOF 
